UBC_400_6.txt

VEHICLE     CAPACITY  LOCATIONS  CUSTOMER  OPTIONS  PRIORITIES  NUMTYPS
10		400		417		400		800		3		4

CUSTOMER  DEMAND
0	 19
1	 18
2	 12
3	 19
4	 20
5	 10
6	 18
7	 18
8	 17
9	 12
10	 16
11	 10
12	 14
13	 12
14	 17
15	 16
16	 12
17	 14
18	 12
19	 20
20	 13
21	 12
22	 14
23	 19
24	 19
25	 15
26	 17
27	 13
28	 17
29	 11
30	 13
31	 15
32	 10
33	 10
34	 19
35	 16
36	 18
37	 13
38	 14
39	 14
40	 14
41	 15
42	 14
43	 10
44	 20
45	 12
46	 18
47	 19
48	 11
49	 11
50	 16
51	 12
52	 13
53	 17
54	 16
55	 14
56	 17
57	 12
58	 10
59	 13
60	 13
61	 15
62	 14
63	 12
64	 19
65	 10
66	 17
67	 13
68	 12
69	 15
70	 19
71	 13
72	 13
73	 10
74	 14
75	 11
76	 19
77	 17
78	 12
79	 15
80	 18
81	 14
82	 13
83	 13
84	 19
85	 19
86	 11
87	 18
88	 11
89	 18
90	 20
91	 15
92	 10
93	 20
94	 15
95	 10
96	 11
97	 13
98	 17
99	 19
100	 13
101	 10
102	 17
103	 16
104	 13
105	 11
106	 19
107	 10
108	 19
109	 18
110	 13
111	 20
112	 10
113	 12
114	 14
115	 18
116	 14
117	 15
118	 18
119	 18
120	 20
121	 13
122	 16
123	 14
124	 11
125	 19
126	 16
127	 18
128	 18
129	 13
130	 12
131	 19
132	 19
133	 15
134	 12
135	 19
136	 14
137	 11
138	 20
139	 10
140	 14
141	 17
142	 10
143	 13
144	 19
145	 16
146	 19
147	 16
148	 18
149	 17
150	 15
151	 14
152	 15
153	 13
154	 16
155	 15
156	 11
157	 12
158	 14
159	 14
160	 17
161	 17
162	 10
163	 19
164	 14
165	 17
166	 19
167	 17
168	 13
169	 18
170	 20
171	 19
172	 17
173	 11
174	 13
175	 15
176	 18
177	 13
178	 19
179	 17
180	 17
181	 14
182	 13
183	 14
184	 16
185	 16
186	 19
187	 10
188	 10
189	 16
190	 20
191	 17
192	 19
193	 12
194	 10
195	 16
196	 20
197	 20
198	 10
199	 14
200	 18
201	 16
202	 18
203	 11
204	 20
205	 10
206	 10
207	 11
208	 18
209	 10
210	 16
211	 11
212	 11
213	 18
214	 14
215	 10
216	 19
217	 18
218	 18
219	 19
220	 17
221	 20
222	 17
223	 19
224	 20
225	 13
226	 10
227	 15
228	 11
229	 12
230	 14
231	 17
232	 15
233	 18
234	 10
235	 15
236	 12
237	 16
238	 20
239	 15
240	 17
241	 10
242	 12
243	 12
244	 19
245	 10
246	 10
247	 20
248	 13
249	 18
250	 15
251	 15
252	 18
253	 18
254	 20
255	 11
256	 10
257	 20
258	 11
259	 15
260	 18
261	 15
262	 12
263	 12
264	 13
265	 16
266	 19
267	 20
268	 19
269	 14
270	 10
271	 19
272	 15
273	 10
274	 13
275	 11
276	 11
277	 19
278	 19
279	 18
280	 13
281	 10
282	 14
283	 17
284	 15
285	 20
286	 14
287	 13
288	 15
289	 14
290	 16
291	 13
292	 17
293	 16
294	 15
295	 19
296	 15
297	 12
298	 19
299	 18
300	 19
301	 11
302	 11
303	 15
304	 14
305	 14
306	 11
307	 11
308	 13
309	 10
310	 17
311	 18
312	 15
313	 17
314	 19
315	 15
316	 19
317	 16
318	 17
319	 14
320	 10
321	 17
322	 11
323	 11
324	 15
325	 19
326	 17
327	 20
328	 16
329	 19
330	 10
331	 10
332	 15
333	 18
334	 10
335	 15
336	 16
337	 17
338	 19
339	 20
340	 10
341	 18
342	 16
343	 10
344	 14
345	 20
346	 11
347	 15
348	 10
349	 17
350	 11
351	 15
352	 16
353	 20
354	 17
355	 18
356	 16
357	 13
358	 15
359	 20
360	 19
361	 14
362	 13
363	 13
364	 10
365	 19
366	 12
367	 14
368	 13
369	 20
370	 13
371	 14
372	 16
373	 10
374	 13
375	 16
376	 10
377	 12
378	 14
379	 17
380	 12
381	 14
382	 15
383	 16
384	 10
385	 16
386	 18
387	 12
388	 18
389	 11
390	 13
391	 11
392	 14
393	 19
394	 16
395	 17
396	 12
397	 15
398	 18
399	 19

LOCATION  XCOORD  YCOORD  CAP  READY  DUE  TYP  SERVICETIME
0		47		44		-1		0		720	 0		0
1		4		18		-1		0		360		 2		6
2		39		2		-1		223		343		 2		6
3		5		4		-1		360		720		 2		6
4		30		18		-1		546		666		 2		6
5		49		21		-1		452		572		 2		6
6		33		34		-1		473		593		 2		6
7		3		22		-1		0		360		 2		6
8		11		34		-1		360		720		 2		6
9		27		3		-1		0		360		 2		6
10		17		32		-1		377		617		 2		6
11		8		49		-1		0		360		 2		6
12		34		17		-1		360		720		 2		6
13		18		25		-1		461		581		 2		6
14		49		43		-1		83		203		 2		6
15		2		44		-1		0		360		 2		6
16		15		42		-1		535		655		 2		6
17		37		29		-1		419		659		 2		6
18		3		35		-1		360		720		 2		6
19		37		50		-1		0		360		 2		6
20		44		1		-1		0		360		 2		6
21		1		29		-1		360		720		 2		6
22		3		32		-1		235		475		 2		6
23		9		12		-1		501		621		 2		6
24		25		5		-1		360		720		 2		6
25		33		50		-1		360		720		 2		6
26		47		45		-1		263		503		 2		6
27		15		48		-1		323		563		 2		6
28		39		44		-1		0		360		 2		6
29		43		43		-1		378		618		 2		6
30		32		21		-1		489		609		 2		6
31		39		33		-1		560		680		 2		6
32		4		41		-1		361		601		 2		6
33		22		30		-1		196		316		 2		6
34		38		49		-1		221		341		 2		6
35		1		9		-1		360		720		 2		6
36		11		47		-1		68		188		 2		6
37		5		2		-1		253		493		 2		6
38		20		36		-1		516		636		 2		6
39		18		7		-1		216		336		 2		6
40		39		10		-1		336		576		 2		6
41		32		14		-1		469		589		 2		6
42		23		42		-1		368		488		 2		6
43		39		41		-1		62		182		 2		6
44		12		36		-1		427		667		 2		6
45		21		27		-1		360		720		 2		6
46		47		15		-1		579		699		 2		6
47		3		41		-1		0		360		 2		6
48		17		19		-1		0		360		 2		6
49		7		19		-1		121		361		 2		6
50		19		17		-1		338		578		 2		6
51		22		16		-1		0		360		 2		6
52		32		16		-1		221		461		 2		6
53		21		9		-1		431		551		 2		6
54		17		39		-1		360		720		 2		6
55		21		45		-1		437		557		 2		6
56		38		2		-1		0		360		 2		6
57		7		26		-1		76		196		 2		6
58		37		28		-1		189		309		 2		6
59		16		39		-1		0		360		 2		6
60		41		8		-1		48		168		 2		6
61		41		18		-1		350		590		 2		6
62		6		37		-1		66		186		 2		6
63		47		13		-1		598		718		 2		6
64		4		9		-1		407		527		 2		6
65		28		33		-1		57		297		 2		6
66		26		3		-1		360		720		 2		6
67		6		8		-1		126		246		 2		6
68		22		32		-1		360		720		 2		6
69		14		25		-1		399		519		 2		6
70		6		41		-1		0		360		 2		6
71		30		17		-1		138		258		 2		6
72		43		11		-1		52		172		 2		6
73		26		34		-1		400		520		 2		6
74		34		39		-1		0		360		 2		6
75		27		28		-1		151		391		 2		6
76		37		37		-1		433		553		 2		6
77		24		24		-1		353		593		 2		6
78		34		47		-1		568		688		 2		6
79		48		10		-1		360		720		 2		6
80		44		24		-1		0		360		 2		6
81		18		7		-1		360		720		 2		6
82		48		9		-1		182		422		 2		6
83		41		41		-1		0		360		 2		6
84		5		40		-1		360		720		 2		6
85		46		25		-1		5		125		 2		6
86		20		32		-1		163		283		 2		6
87		36		19		-1		411		651		 2		6
88		5		50		-1		481		601		 2		6
89		18		15		-1		269		509		 2		6
90		11		24		-1		183		303		 2		6
91		41		12		-1		360		720		 2		6
92		15		4		-1		382		622		 2		6
93		3		48		-1		360		720		 2		6
94		42		1		-1		98		338		 2		6
95		40		19		-1		232		352		 2		6
96		19		29		-1		0		360		 2		6
97		25		2		-1		135		255		 2		6
98		30		20		-1		4		124		 2		6
99		48		38		-1		258		498		 2		6
100		32		10		-1		0		360		 2		6
101		40		48		-1		165		405		 2		6
102		12		50		-1		360		720		 2		6
103		27		34		-1		0		360		 2		6
104		24		15		-1		453		573		 2		6
105		9		9		-1		360		720		 2		6
106		10		1		-1		329		569		 2		6
107		41		6		-1		372		492		 2		6
108		43		9		-1		434		554		 2		6
109		43		27		-1		0		360		 2		6
110		27		28		-1		412		652		 2		6
111		12		50		-1		0		360		 2		6
112		8		2		-1		27		267		 2		6
113		30		45		-1		360		720		 2		6
114		47		17		-1		435		675		 2		6
115		35		47		-1		0		360		 2		6
116		17		43		-1		360		720		 2		6
117		21		18		-1		360		720		 2		6
118		20		38		-1		360		720		 2		6
119		7		26		-1		0		360		 2		6
120		32		12		-1		118		238		 2		6
121		31		12		-1		66		186		 2		6
122		5		15		-1		476		596		 2		6
123		39		42		-1		360		720		 2		6
124		23		41		-1		223		343		 2		6
125		6		2		-1		5		125		 2		6
126		17		14		-1		384		504		 2		6
127		25		40		-1		442		682		 2		6
128		29		48		-1		0		360		 2		6
129		7		5		-1		118		238		 2		6
130		16		23		-1		367		607		 2		6
131		20		12		-1		122		362		 2		6
132		20		1		-1		180		300		 2		6
133		33		1		-1		0		360		 2		6
134		31		15		-1		64		184		 2		6
135		42		18		-1		360		720		 2		6
136		4		32		-1		308		548		 2		6
137		21		50		-1		133		253		 2		6
138		1		18		-1		194		314		 2		6
139		49		9		-1		360		720		 2		6
140		1		43		-1		360		720		 2		6
141		3		11		-1		0		360		 2		6
142		14		7		-1		0		360		 2		6
143		43		15		-1		436		556		 2		6
144		45		7		-1		146		266		 2		6
145		25		49		-1		0		360		 2		6
146		4		40		-1		0		360		 2		6
147		39		41		-1		0		360		 2		6
148		49		49		-1		184		424		 2		6
149		19		44		-1		182		302		 2		6
150		50		23		-1		446		686		 2		6
151		11		25		-1		360		720		 2		6
152		7		1		-1		0		360		 2		6
153		18		11		-1		381		621		 2		6
154		10		48		-1		203		323		 2		6
155		50		40		-1		36		156		 2		6
156		40		34		-1		186		306		 2		6
157		21		18		-1		376		616		 2		6
158		20		8		-1		360		720		 2		6
159		4		27		-1		63		303		 2		6
160		41		16		-1		69		189		 2		6
161		11		40		-1		360		720		 2		6
162		34		34		-1		432		552		 2		6
163		46		10		-1		9		249		 2		6
164		48		14		-1		0		360		 2		6
165		43		43		-1		188		428		 2		6
166		15		19		-1		560		680		 2		6
167		50		48		-1		97		217		 2		6
168		23		7		-1		360		720		 2		6
169		18		41		-1		383		623		 2		6
170		42		4		-1		0		360		 2		6
171		26		15		-1		0		360		 2		6
172		47		27		-1		306		546		 2		6
173		21		37		-1		0		360		 2		6
174		30		6		-1		0		360		 2		6
175		27		34		-1		548		668		 2		6
176		34		25		-1		0		360		 2		6
177		1		30		-1		360		720		 2		6
178		24		5		-1		168		288		 2		6
179		14		22		-1		74		194		 2		6
180		44		32		-1		360		720		 2		6
181		13		39		-1		363		603		 2		6
182		35		48		-1		78		198		 2		6
183		24		44		-1		360		720		 2		6
184		43		27		-1		60		180		 2		6
185		40		12		-1		360		720		 2		6
186		20		1		-1		314		554		 2		6
187		33		35		-1		541		661		 2		6
188		49		45		-1		548		668		 2		6
189		14		14		-1		489		609		 2		6
190		7		41		-1		173		293		 2		6
191		22		36		-1		115		235		 2		6
192		11		30		-1		360		720		 2		6
193		22		19		-1		146		266		 2		6
194		35		6		-1		360		720		 2		6
195		7		43		-1		0		360		 2		6
196		50		8		-1		360		720		 2		6
197		32		44		-1		439		559		 2		6
198		46		39		-1		445		685		 2		6
199		33		48		-1		360		720		 2		6
200		41		21		-1		0		360		 2		6
201		46		35		-1		222		462		 2		6
202		27		40		-1		360		720		 2		6
203		35		31		-1		360		720		 2		6
204		13		44		-1		450		690		 2		6
205		19		44		-1		406		526		 2		6
206		9		11		-1		0		360		 2		6
207		31		15		-1		274		514		 2		6
208		26		34		-1		220		340		 2		6
209		30		30		-1		39		279		 2		6
210		30		10		-1		0		360		 2		6
211		44		17		-1		427		547		 2		6
212		37		23		-1		497		617		 2		6
213		5		15		-1		360		720		 2		6
214		50		18		-1		65		185		 2		6
215		20		45		-1		304		544		 2		6
216		50		31		-1		0		360		 2		6
217		15		13		-1		51		291		 2		6
218		4		17		-1		553		673		 2		6
219		9		22		-1		36		276		 2		6
220		20		37		-1		12		252		 2		6
221		48		43		-1		473		593		 2		6
222		10		30		-1		175		415		 2		6
223		42		34		-1		475		595		 2		6
224		43		38		-1		181		421		 2		6
225		6		22		-1		360		720		 2		6
226		27		45		-1		145		265		 2		6
227		34		32		-1		0		360		 2		6
228		30		1		-1		546		666		 2		6
229		13		46		-1		360		720		 2		6
230		12		9		-1		35		155		 2		6
231		44		24		-1		65		305		 2		6
232		25		32		-1		360		720		 2		6
233		23		38		-1		0		360		 2		6
234		25		40		-1		360		720		 2		6
235		25		20		-1		31		271		 2		6
236		39		3		-1		0		360		 2		6
237		25		16		-1		104		224		 2		6
238		2		45		-1		256		496		 2		6
239		9		43		-1		0		360		 2		6
240		16		5		-1		150		270		 2		6
241		33		45		-1		120		240		 2		6
242		4		27		-1		280		520		 2		6
243		48		5		-1		543		663		 2		6
244		17		12		-1		151		271		 2		6
245		35		50		-1		0		360		 2		6
246		43		28		-1		0		360		 2		6
247		37		26		-1		351		591		 2		6
248		26		48		-1		520		640		 2		6
249		30		11		-1		454		574		 2		6
250		35		9		-1		493		613		 2		6
251		2		34		-1		433		553		 2		6
252		37		30		-1		360		720		 2		6
253		26		10		-1		77		197		 2		6
254		7		40		-1		0		360		 2		6
255		21		26		-1		102		222		 2		6
256		13		33		-1		436		676		 2		6
257		41		18		-1		360		720		 2		6
258		14		16		-1		0		360		 2		6
259		2		38		-1		481		601		 2		6
260		22		34		-1		401		521		 2		6
261		3		10		-1		105		345		 2		6
262		24		21		-1		360		720		 2		6
263		43		7		-1		566		686		 2		6
264		13		34		-1		0		360		 2		6
265		5		15		-1		234		354		 2		6
266		41		27		-1		0		360		 2		6
267		6		32		-1		360		720		 2		6
268		27		15		-1		360		720		 2		6
269		50		28		-1		309		549		 2		6
270		47		12		-1		517		637		 2		6
271		40		39		-1		270		510		 2		6
272		27		38		-1		257		497		 2		6
273		2		2		-1		185		305		 2		6
274		23		12		-1		360		720		 2		6
275		49		23		-1		185		305		 2		6
276		27		7		-1		152		392		 2		6
277		29		35		-1		504		624		 2		6
278		15		31		-1		4		124		 2		6
279		36		32		-1		0		360		 2		6
280		45		26		-1		540		660		 2		6
281		18		29		-1		599		719		 2		6
282		43		2		-1		360		720		 2		6
283		17		12		-1		360		720		 2		6
284		44		13		-1		153		273		 2		6
285		32		33		-1		378		498		 2		6
286		7		28		-1		361		481		 2		6
287		3		5		-1		112		232		 2		6
288		12		10		-1		199		439		 2		6
289		42		7		-1		368		488		 2		6
290		14		27		-1		360		720		 2		6
291		25		17		-1		584		704		 2		6
292		31		26		-1		150		270		 2		6
293		31		48		-1		251		491		 2		6
294		9		6		-1		506		626		 2		6
295		15		47		-1		0		360		 2		6
296		42		39		-1		441		561		 2		6
297		28		46		-1		131		251		 2		6
298		25		13		-1		597		717		 2		6
299		1		2		-1		528		648		 2		6
300		28		49		-1		360		720		 2		6
301		49		21		-1		397		517		 2		6
302		49		33		-1		360		720		 2		6
303		24		29		-1		438		678		 2		6
304		7		10		-1		360		720		 2		6
305		1		40		-1		360		720		 2		6
306		25		16		-1		111		351		 2		6
307		3		28		-1		515		635		 2		6
308		10		9		-1		492		612		 2		6
309		27		32		-1		0		360		 2		6
310		2		21		-1		21		141		 2		6
311		32		11		-1		492		612		 2		6
312		3		22		-1		495		615		 2		6
313		13		11		-1		89		209		 2		6
314		19		42		-1		360		720		 2		6
315		47		1		-1		360		720		 2		6
316		41		38		-1		0		360		 2		6
317		18		7		-1		1		241		 2		6
318		14		37		-1		194		314		 2		6
319		25		22		-1		432		552		 2		6
320		41		30		-1		28		148		 2		6
321		24		24		-1		0		360		 2		6
322		3		5		-1		432		672		 2		6
323		42		41		-1		520		640		 2		6
324		26		19		-1		360		720		 2		6
325		1		31		-1		360		720		 2		6
326		34		1		-1		445		685		 2		6
327		48		47		-1		0		360		 2		6
328		12		5		-1		78		318		 2		6
329		5		28		-1		360		720		 2		6
330		50		36		-1		0		360		 2		6
331		18		47		-1		360		720		 2		6
332		13		19		-1		505		625		 2		6
333		12		50		-1		0		360		 2		6
334		41		4		-1		81		321		 2		6
335		11		27		-1		0		360		 2		6
336		32		26		-1		360		720		 2		6
337		33		24		-1		365		485		 2		6
338		36		9		-1		0		360		 2		6
339		33		24		-1		8		128		 2		6
340		23		27		-1		164		284		 2		6
341		47		37		-1		0		360		 2		6
342		23		24		-1		360		720		 2		6
343		15		23		-1		0		360		 2		6
344		34		38		-1		0		360		 2		6
345		47		24		-1		87		327		 2		6
346		41		27		-1		420		540		 2		6
347		45		21		-1		360		720		 2		6
348		29		22		-1		56		176		 2		6
349		39		27		-1		485		605		 2		6
350		32		26		-1		360		720		 2		6
351		24		11		-1		360		720		 2		6
352		9		29		-1		0		360		 2		6
353		42		48		-1		185		305		 2		6
354		41		38		-1		35		275		 2		6
355		2		3		-1		523		643		 2		6
356		50		12		-1		74		194		 2		6
357		11		43		-1		129		369		 2		6
358		6		6		-1		467		707		 2		6
359		42		41		-1		0		360		 2		6
360		8		33		-1		52		172		 2		6
361		38		26		-1		360		720		 2		6
362		23		12		-1		360		720		 2		6
363		10		21		-1		190		310		 2		6
364		19		39		-1		0		360		 2		6
365		34		21		-1		491		611		 2		6
366		35		33		-1		138		378		 2		6
367		26		20		-1		21		141		 2		6
368		22		27		-1		0		360		 2		6
369		30		18		-1		519		639		 2		6
370		46		14		-1		360		720		 2		6
371		46		38		-1		360		720		 2		6
372		38		29		-1		402		522		 2		6
373		17		14		-1		287		527		 2		6
374		25		41		-1		448		568		 2		6
375		34		42		-1		200		320		 2		6
376		23		5		-1		436		556		 2		6
377		2		16		-1		514		634		 2		6
378		33		28		-1		47		167		 2		6
379		22		49		-1		389		629		 2		6
380		12		38		-1		139		379		 2		6
381		16		23		-1		360		720		 2		6
382		28		37		-1		198		318		 2		6
383		12		15		-1		0		360		 2		6
384		34		7		-1		84		204		 2		6
385		8		12		-1		360		720		 2		6
386		39		35		-1		161		401		 2		6
387		47		12		-1		232		352		 2		6
388		19		8		-1		38		278		 2		6
389		37		28		-1		360		720		 2		6
390		28		41		-1		75		195		 2		6
391		4		14		-1		194		314		 2		6
392		43		46		-1		342		582		 2		6
393		11		10		-1		187		427		 2		6
394		1		24		-1		431		551		 2		6
395		34		11		-1		567		687		 2		6
396		46		32		-1		360		720		 2		6
397		21		47		-1		360		720		 2		6
398		3		25		-1		360		720		 2		6
399		39		10		-1		0		360		 2		6
400		7		49		-1		0		360		 2		6
401		8		35		30		9		489		 1		4
402		16		5		30		110		590		 1		4
403		26		27		30		0		720		 1		4
404		21		7		30		29		509		 1		4
405		36		10		25		0		720		 1		4
406		11		34		30		219		699		 1		4
407		43		8		30		28		508		 1		4
408		35		45		19		0		720		 1		4
409		39		15		30		37		517		 1		4
410		22		40		22		0		720		 1		4
411		24		41		30		76		556		 1		4
412		45		39		30		68		548		 1		4
413		16		29		22		0		720		 1		4
414		16		26		21		0		720		 1		4
415		26		10		23		0		720		 1		4
416		41		12		30		184		664		 1		4
OPTION  LOCATION  CUSTOMER  PRIO  SERVICETIME   COST
0		406		0		0		2		0
1		409		1		0		2		0
2		404		2		0		2		0
3		415		3		0		2		0
4		411		4		0		2		0
5		406		5		0		2		0
6		409		6		0		2		0
7		405		7		0		2		0
8		407		8		0		2		0
9		414		9		0		2		0
10		404		10		0		2		0
11		410		11		0		2		0
12		413		12		0		2		0
13		404		13		0		2		0
14		415		14		0		2		0
15		412		15		0		2		0
16		409		16		0		2		0
17		405		17		0		2		0
18		411		18		0		2		0
19		405		19		0		2		0
20		405		20		0		2		0
21		412		21		0		2		0
22		412		22		0		2		0
23		415		23		0		2		0
24		405		24		0		2		0
25		416		25		0		2		0
26		411		26		0		2		0
27		402		27		0		2		0
28		407		28		0		2		0
29		416		29		0		2		0
30		408		30		0		2		0
31		409		31		0		2		0
32		413		32		0		2		0
33		406		33		0		2		0
34		401		34		0		2		0
35		411		35		0		2		0
36		414		36		0		2		0
37		406		37		0		2		0
38		412		38		0		2		0
39		415		39		0		2		0
40		413		40		0		2		0
41		405		41		0		2		0
42		413		42		0		2		0
43		407		43		0		2		0
44		405		44		0		2		0
45		413		45		0		2		0
46		407		46		0		2		0
47		414		47		0		2		0
48		408		48		0		2		0
49		412		49		0		2		0
50		405		50		0		2		0
51		402		51		0		2		0
52		412		52		0		2		0
53		404		53		0		2		0
54		406		54		0		2		0
55		413		55		0		2		0
56		412		56		0		2		0
57		415		57		0		2		0
58		414		58		0		2		0
59		416		59		0		2		0
60		408		60		0		2		0
61		404		61		0		2		0
62		410		62		0		2		0
63		409		63		0		2		0
64		402		64		0		2		0
65		416		65		0		2		0
66		414		66		0		2		0
67		407		67		0		2		0
68		415		68		0		2		0
69		403		69		0		2		0
70		405		70		0		2		0
71		412		71		0		2		0
72		413		72		0		2		0
73		415		73		0		2		0
74		401		74		0		2		0
75		403		75		0		2		0
76		401		76		0		2		0
77		408		77		0		2		0
78		410		78		0		2		0
79		409		79		0		2		0
80		1		80		0		5		0
81		2		81		0		5		0
82		3		82		0		5		0
83		4		83		0		5		0
84		5		84		0		5		0
85		6		85		0		5		0
86		7		86		0		5		0
87		8		87		0		5		0
88		9		88		0		5		0
89		10		89		0		5		0
90		11		90		0		5		0
91		12		91		0		5		0
92		13		92		0		5		0
93		14		93		0		5		0
94		15		94		0		5		0
95		16		95		0		5		0
96		17		96		0		5		0
97		18		97		0		5		0
98		19		98		0		5		0
99		20		99		0		5		0
100		21		100		0		5		0
101		22		101		0		5		0
102		23		102		0		5		0
103		24		103		0		5		0
104		25		104		0		5		0
105		26		105		0		5		0
106		27		106		0		5		0
107		28		107		0		5		0
108		29		108		0		5		0
109		30		109		0		5		0
110		31		110		0		5		0
111		32		111		0		5		0
112		33		112		0		5		0
113		34		113		0		5		0
114		35		114		0		5		0
115		36		115		0		5		0
116		37		116		0		5		0
117		38		117		0		5		0
118		39		118		0		5		0
119		40		119		0		5		0
120		41		120		0		5		0
121		42		121		0		5		0
122		43		122		0		5		0
123		44		123		0		5		0
124		45		124		0		5		0
125		46		125		0		5		0
126		47		126		0		5		0
127		48		127		0		5		0
128		49		128		0		5		0
129		50		129		0		5		0
130		51		130		0		5		0
131		52		131		0		5		0
132		53		132		0		5		0
133		54		133		0		5		0
134		55		134		0		5		0
135		56		135		0		5		0
136		57		136		0		5		0
137		58		137		0		5		0
138		59		138		0		5		0
139		60		139		0		5		0
140		61		140		0		5		0
141		62		141		0		5		0
142		63		142		0		5		0
143		64		143		0		5		0
144		65		144		0		5		0
145		66		145		0		5		0
146		67		146		0		5		0
147		68		147		0		5		0
148		69		148		0		5		0
149		70		149		0		5		0
150		71		150		0		5		0
151		72		151		0		5		0
152		73		152		0		5		0
153		74		153		0		5		0
154		75		154		0		5		0
155		76		155		0		5		0
156		77		156		0		5		0
157		78		157		0		5		0
158		79		158		0		5		0
159		80		159		0		5		0
160		81		160		0		5		0
161		412		160		1		2		0
162		82		161		1		5		0
163		404		161		0		2		0
164		83		162		1		5		0
165		402		162		0		2		0
166		84		163		1		5		0
167		410		163		0		2		0
168		85		164		0		5		0
169		414		164		1		2		0
170		86		165		0		5		0
171		406		165		1		2		0
172		87		166		1		5		0
173		409		166		0		2		0
174		88		167		1		5		0
175		406		167		0		2		0
176		89		168		0		5		0
177		413		168		1		2		0
178		90		169		1		5		0
179		403		169		0		2		0
180		91		170		0		5		0
181		401		170		1		2		0
182		92		171		0		5		0
183		406		171		1		2		0
184		93		172		0		5		0
185		408		172		1		2		0
186		94		173		1		5		0
187		416		173		0		2		0
188		95		174		0		5		0
189		408		174		1		2		0
190		96		175		0		5		0
191		401		175		1		2		0
192		97		176		0		5		0
193		416		176		1		2		0
194		98		177		1		5		0
195		405		177		0		2		0
196		99		178		1		5		0
197		415		178		0		2		0
198		100		179		0		5		0
199		412		179		1		2		0
200		101		180		1		5		0
201		407		180		0		2		0
202		102		181		0		5		0
203		413		181		1		2		0
204		103		182		1		5		0
205		406		182		0		2		0
206		104		183		0		5		0
207		402		183		1		2		0
208		105		184		1		5		0
209		404		184		0		2		0
210		106		185		1		5		0
211		412		185		0		2		0
212		107		186		1		5		0
213		414		186		0		2		0
214		108		187		1		5		0
215		416		187		0		2		0
216		109		188		1		5		0
217		416		188		0		2		0
218		110		189		1		5		0
219		412		189		0		2		0
220		111		190		1		5		0
221		405		190		0		2		0
222		112		191		0		5		0
223		414		191		1		2		0
224		113		192		0		5		0
225		411		192		1		2		0
226		114		193		1		5		0
227		409		193		0		2		0
228		115		194		1		5		0
229		416		194		0		2		0
230		116		195		1		5		0
231		406		195		0		2		0
232		117		196		1		5		0
233		406		196		0		2		0
234		118		197		1		5		0
235		410		197		0		2		0
236		119		198		0		5		0
237		415		198		1		2		0
238		120		199		1		5		0
239		409		199		0		2		0
240		121		200		1		5		0
241		404		200		0		2		0
242		122		201		0		5		0
243		413		201		1		2		0
244		123		202		1		5		0
245		411		202		0		2		0
246		124		203		1		5		0
247		404		203		0		2		0
248		125		204		1		5		0
249		413		204		0		2		0
250		126		205		1		5		0
251		409		205		0		2		0
252		127		206		0		5		0
253		406		206		1		2		0
254		128		207		1		5		0
255		412		207		0		2		0
256		129		208		1		5		0
257		401		208		0		2		0
258		130		209		0		5		0
259		407		209		1		2		0
260		131		210		0		5		0
261		413		210		1		2		0
262		132		211		1		5		0
263		415		211		0		2		0
264		133		212		0		5		0
265		416		212		1		2		0
266		134		213		1		5		0
267		415		213		0		2		0
268		135		214		0		5		0
269		415		214		1		2		0
270		136		215		0		5		0
271		411		215		1		2		0
272		137		216		0		5		0
273		414		216		1		2		0
274		138		217		0		5		0
275		406		217		1		2		0
276		139		218		1		5		0
277		401		218		0		2		0
278		140		219		1		5		0
279		414		219		0		2		0
280		141		220		0		5		0
281		404		220		1		2		0
282		142		221		1		5		0
283		401		221		0		2		0
284		143		222		1		5		0
285		415		222		0		2		0
286		144		223		0		5		0
287		415		223		1		2		0
288		145		224		1		5		0
289		413		224		0		2		0
290		146		225		1		5		0
291		406		225		0		2		0
292		147		226		1		5		0
293		416		226		0		2		0
294		148		227		1		5		0
295		410		227		0		2		0
296		149		228		1		5		0
297		406		228		0		2		0
298		150		229		1		5		0
299		412		229		0		2		0
300		151		230		0		5		0
301		408		230		1		2		0
302		152		231		1		5		0
303		404		231		0		2		0
304		153		232		1		5		0
305		403		232		0		2		0
306		154		233		0		5		0
307		410		233		1		2		0
308		155		234		0		5		0
309		411		234		1		2		0
310		156		235		0		5		0
311		403		235		1		2		0
312		157		236		1		5		0
313		415		236		0		2		0
314		158		237		0		5		0
315		402		237		1		2		0
316		159		238		1		5		0
317		410		238		0		2		0
318		160		239		1		5		0
319		405		239		0		2		0
320		161		240		2		5		0
321		406		240		0		2		0
322		414		240		1		2		0
323		162		241		2		5		0
324		411		241		0		2		0
325		414		241		1		2		0
326		163		242		0		5		0
327		407		242		2		2		0
328		416		242		1		2		0
329		164		243		1		5		0
330		415		243		2		2		0
331		407		243		0		2		0
332		165		244		0		5		0
333		403		244		1		2		0
334		416		244		2		2		0
335		166		245		2		5		0
336		402		245		0		2		0
337		404		245		1		2		0
338		167		246		2		5		0
339		411		246		1		2		0
340		403		246		0		2		0
341		168		247		1		5		0
342		415		247		0		2		0
343		409		247		2		2		0
344		169		248		0		5		0
345		409		248		1		2		0
346		406		248		2		2		0
347		170		249		0		5		0
348		416		249		1		2		0
349		415		249		2		2		0
350		171		250		1		5		0
351		409		250		0		2		0
352		415		250		2		2		0
353		172		251		0		5		0
354		405		251		1		2		0
355		406		251		2		2		0
356		173		252		1		5		0
357		409		252		0		2		0
358		402		252		2		2		0
359		174		253		2		5		0
360		416		253		0		2		0
361		411		253		1		2		0
362		175		254		1		5		0
363		401		254		2		2		0
364		407		254		0		2		0
365		176		255		2		5		0
366		409		255		0		2		0
367		408		255		1		2		0
368		177		256		0		5		0
369		410		256		1		2		0
370		414		256		2		2		0
371		178		257		1		5		0
372		402		257		0		2		0
373		405		257		2		2		0
374		179		258		2		5		0
375		413		258		0		2		0
376		407		258		1		2		0
377		180		259		2		5		0
378		411		259		0		2		0
379		408		259		1		2		0
380		181		260		0		5		0
381		406		260		1		2		0
382		409		260		2		2		0
383		182		261		2		5		0
384		410		261		0		2		0
385		403		261		1		2		0
386		183		262		0		5		0
387		413		262		1		2		0
388		408		262		2		2		0
389		184		263		2		5		0
390		407		263		1		2		0
391		409		263		0		2		0
392		185		264		0		5		0
393		409		264		1		2		0
394		407		264		2		2		0
395		186		265		0		5		0
396		401		265		1		2		0
397		415		265		2		2		0
398		187		266		2		5		0
399		410		266		0		2		0
400		408		266		1		2		0
401		188		267		2		5		0
402		408		267		0		2		0
403		410		267		1		2		0
404		189		268		0		5		0
405		416		268		1		2		0
406		404		268		2		2		0
407		190		269		2		5		0
408		408		269		1		2		0
409		405		269		0		2		0
410		191		270		0		5		0
411		403		270		2		2		0
412		413		270		1		2		0
413		192		271		2		5		0
414		406		271		1		2		0
415		401		271		0		2		0
416		193		272		1		5		0
417		407		272		2		2		0
418		406		272		0		2		0
419		194		273		2		5		0
420		415		273		0		2		0
421		407		273		1		2		0
422		195		274		1		5		0
423		406		274		0		2		0
424		416		274		2		2		0
425		196		275		1		5		0
426		415		275		0		2		0
427		411		275		2		2		0
428		197		276		1		5		0
429		410		276		0		2		0
430		412		276		2		2		0
431		198		277		2		5		0
432		410		277		0		2		0
433		413		277		1		2		0
434		199		278		0		5		0
435		408		278		2		2		0
436		411		278		1		2		0
437		200		279		2		5		0
438		407		279		1		2		0
439		415		279		0		2		0
440		201		280		0		5		0
441		403		280		2		2		0
442		408		280		1		2		0
443		202		281		0		5		0
444		413		281		1		2		0
445		410		281		2		2		0
446		203		282		0		5		0
447		411		282		2		2		0
448		403		282		1		2		0
449		204		283		0		5		0
450		411		283		2		2		0
451		401		283		1		2		0
452		205		284		2		5		0
453		413		284		0		2		0
454		412		284		1		2		0
455		206		285		2		5		0
456		402		285		0		2		0
457		413		285		1		2		0
458		207		286		1		5		0
459		415		286		0		2		0
460		408		286		2		2		0
461		208		287		0		5		0
462		402		287		1		2		0
463		411		287		2		2		0
464		209		288		2		5		0
465		410		288		0		2		0
466		416		288		1		2		0
467		210		289		2		5		0
468		412		289		1		2		0
469		414		289		0		2		0
470		211		290		0		5		0
471		405		290		1		2		0
472		416		290		2		2		0
473		212		291		2		5		0
474		405		291		1		2		0
475		402		291		0		2		0
476		213		292		2		5		0
477		413		292		0		2		0
478		415		292		1		2		0
479		214		293		2		5		0
480		412		293		0		2		0
481		416		293		1		2		0
482		215		294		0		5		0
483		413		294		1		2		0
484		412		294		2		2		0
485		216		295		2		5		0
486		409		295		0		2		0
487		416		295		1		2		0
488		217		296		2		5		0
489		404		296		1		2		0
490		414		296		0		2		0
491		218		297		0		5		0
492		413		297		1		2		0
493		401		297		2		2		0
494		219		298		2		5		0
495		416		298		0		2		0
496		402		298		1		2		0
497		220		299		2		5		0
498		406		299		0		2		0
499		411		299		1		2		0
500		221		300		2		5		0
501		411		300		1		2		0
502		408		300		0		2		0
503		222		301		1		5		0
504		410		301		2		2		0
505		413		301		0		2		0
506		223		302		0		5		0
507		409		302		2		2		0
508		414		302		1		2		0
509		224		303		0		5		0
510		403		303		2		2		0
511		412		303		1		2		0
512		225		304		1		5		0
513		413		304		2		2		0
514		402		304		0		2		0
515		226		305		1		5		0
516		414		305		2		2		0
517		410		305		0		2		0
518		227		306		1		5		0
519		402		306		2		2		0
520		412		306		0		2		0
521		228		307		1		5		0
522		404		307		2		2		0
523		407		307		0		2		0
524		229		308		2		5		0
525		406		308		1		2		0
526		408		308		0		2		0
527		230		309		1		5		0
528		413		309		0		2		0
529		415		309		2		2		0
530		231		310		1		5		0
531		409		310		2		2		0
532		402		310		0		2		0
533		232		311		1		5		0
534		414		311		0		2		0
535		415		311		2		2		0
536		233		312		0		5		0
537		405		312		1		2		0
538		403		312		2		2		0
539		234		313		0		5		0
540		408		313		2		2		0
541		410		313		1		2		0
542		235		314		2		5		0
543		413		314		1		2		0
544		414		314		0		2		0
545		236		315		0		5		0
546		405		315		1		2		0
547		415		315		2		2		0
548		237		316		1		5		0
549		415		316		2		2		0
550		405		316		0		2		0
551		238		317		1		5		0
552		401		317		2		2		0
553		403		317		0		2		0
554		239		318		2		5		0
555		404		318		0		2		0
556		405		318		1		2		0
557		240		319		2		5		0
558		404		319		0		2		0
559		402		319		1		2		0
560		241		320		0		5		0
561		242		320		1		5		0
562		402		320		2		2		0
563		243		321		0		5		0
564		244		321		1		5		0
565		401		321		2		2		0
566		245		322		1		5		0
567		246		322		2		5		0
568		408		322		0		2		0
569		247		323		0		5		0
570		248		323		1		5		0
571		408		323		2		2		0
572		249		324		2		5		0
573		250		324		0		5		0
574		409		324		1		2		0
575		251		325		1		5		0
576		252		325		0		5		0
577		410		325		2		2		0
578		253		326		2		5		0
579		254		326		0		5		0
580		405		326		1		2		0
581		255		327		1		5		0
582		256		327		2		5		0
583		403		327		0		2		0
584		257		328		2		5		0
585		258		328		1		5		0
586		405		328		0		2		0
587		259		329		0		5		0
588		260		329		2		5		0
589		404		329		1		2		0
590		261		330		2		5		0
591		262		330		1		5		0
592		414		330		0		2		0
593		263		331		2		5		0
594		264		331		1		5		0
595		412		331		0		2		0
596		265		332		1		5		0
597		266		332		2		5		0
598		412		332		0		2		0
599		267		333		1		5		0
600		268		333		2		5		0
601		403		333		0		2		0
602		269		334		2		5		0
603		270		334		0		5		0
604		406		334		1		2		0
605		271		335		2		5		0
606		272		335		0		5		0
607		413		335		1		2		0
608		273		336		2		5		0
609		274		336		1		5		0
610		414		336		0		2		0
611		275		337		0		5		0
612		276		337		1		5		0
613		404		337		2		2		0
614		277		338		0		5		0
615		278		338		2		5		0
616		401		338		1		2		0
617		279		339		2		5		0
618		280		339		0		5		0
619		404		339		1		2		0
620		281		340		1		5		0
621		282		340		2		5		0
622		413		340		0		2		0
623		283		341		2		5		0
624		284		341		1		5		0
625		409		341		0		2		0
626		285		342		1		5		0
627		286		342		2		5		0
628		403		342		0		2		0
629		287		343		1		5		0
630		288		343		2		5		0
631		413		343		0		2		0
632		289		344		1		5		0
633		290		344		0		5		0
634		416		344		2		2		0
635		291		345		0		5		0
636		292		345		2		5		0
637		404		345		1		2		0
638		293		346		1		5		0
639		294		346		0		5		0
640		410		346		2		2		0
641		295		347		1		5		0
642		296		347		0		5		0
643		402		347		2		2		0
644		297		348		2		5		0
645		298		348		1		5		0
646		411		348		0		2		0
647		299		349		2		5		0
648		300		349		0		5		0
649		408		349		1		2		0
650		301		350		2		5		0
651		302		350		1		5		0
652		405		350		0		2		0
653		303		351		0		5		0
654		304		351		1		5		0
655		403		351		2		2		0
656		305		352		1		5		0
657		306		352		2		5		0
658		415		352		0		2		0
659		307		353		2		5		0
660		308		353		1		5		0
661		406		353		0		2		0
662		309		354		2		5		0
663		310		354		0		5		0
664		406		354		1		2		0
665		311		355		1		5		0
666		312		355		2		5		0
667		407		355		0		2		0
668		313		356		1		5		0
669		314		356		2		5		0
670		404		356		0		2		0
671		315		357		0		5		0
672		316		357		2		5		0
673		402		357		1		2		0
674		317		358		1		5		0
675		318		358		2		5		0
676		404		358		0		2		0
677		319		359		1		5		0
678		320		359		2		5		0
679		416		359		0		2		0
680		321		360		1		5		0
681		322		360		2		5		0
682		413		360		0		2		0
683		323		361		2		5		0
684		324		361		0		5		0
685		412		361		1		2		0
686		325		362		0		5		0
687		326		362		1		5		0
688		415		362		2		2		0
689		327		363		2		5		0
690		328		363		1		5		0
691		412		363		0		2		0
692		329		364		0		5		0
693		330		364		2		5		0
694		413		364		1		2		0
695		331		365		1		5		0
696		332		365		2		5		0
697		407		365		0		2		0
698		333		366		1		5		0
699		334		366		0		5		0
700		416		366		2		2		0
701		335		367		2		5		0
702		336		367		0		5		0
703		401		367		1		2		0
704		337		368		0		5		0
705		338		368		1		5		0
706		407		368		2		2		0
707		339		369		1		5		0
708		340		369		2		5		0
709		410		369		0		2		0
710		341		370		0		5		0
711		342		370		1		5		0
712		404		370		2		2		0
713		343		371		0		5		0
714		344		371		1		5		0
715		413		371		2		2		0
716		345		372		0		5		0
717		346		372		1		5		0
718		416		372		2		2		0
719		347		373		2		5		0
720		348		373		1		5		0
721		415		373		0		2		0
722		349		374		0		5		0
723		350		374		1		5		0
724		412		374		2		2		0
725		351		375		0		5		0
726		352		375		2		5		0
727		409		375		1		2		0
728		353		376		1		5		0
729		354		376		2		5		0
730		405		376		0		2		0
731		355		377		2		5		0
732		356		377		0		5		0
733		404		377		1		2		0
734		357		378		1		5		0
735		358		378		0		5		0
736		401		378		2		2		0
737		359		379		0		5		0
738		360		379		1		5		0
739		402		379		2		2		0
740		361		380		1		5		0
741		362		380		2		5		0
742		412		380		0		2		0
743		363		381		1		5		0
744		364		381		2		5		0
745		414		381		0		2		0
746		365		382		0		5		0
747		366		382		1		5		0
748		414		382		2		2		0
749		367		383		0		5		0
750		368		383		2		5		0
751		410		383		1		2		0
752		369		384		1		5		0
753		370		384		0		5		0
754		407		384		2		2		0
755		371		385		1		5		0
756		372		385		2		5		0
757		409		385		0		2		0
758		373		386		0		5		0
759		374		386		1		5		0
760		409		386		2		2		0
761		375		387		2		5		0
762		376		387		0		5		0
763		404		387		1		2		0
764		377		388		1		5		0
765		378		388		0		5		0
766		416		388		2		2		0
767		379		389		1		5		0
768		380		389		0		5		0
769		411		389		2		2		0
770		381		390		0		5		0
771		382		390		1		5		0
772		411		390		2		2		0
773		383		391		2		5		0
774		384		391		1		5		0
775		407		391		0		2		0
776		385		392		2		5		0
777		386		392		1		5		0
778		412		392		0		2		0
779		387		393		0		5		0
780		388		393		1		5		0
781		406		393		2		2		0
782		389		394		2		5		0
783		390		394		0		5		0
784		406		394		1		2		0
785		391		395		0		5		0
786		392		395		1		5		0
787		408		395		2		2		0
788		393		396		0		5		0
789		394		396		1		5		0
790		415		396		2		2		0
791		395		397		0		5		0
792		396		397		1		5		0
793		416		397		2		2		0
794		397		398		1		5		0
795		398		398		2		5		0
796		411		398		0		2		0
797		399		399		1		5		0
798		400		399		2		5		0
799		407		399		0		2		0
